%SETS
JOBS     = 1..3;
MACHINES = 1..6;
SPEED    = 1;

time               = array3d(JOBS,MACHINES,1..SPEED,[49, 90, 96, 44, 81, 57, 61, 93, 16, 17, 11, 84, 80, 88, 98, 81, 51, 80]);
energy             = array3d(JOBS,MACHINES,1..SPEED,[61, 40, 38, 64, 44, 56, 54, 39, 85, 84, 89, 43, 44, 41, 37, 44, 60, 44]);
precedence         = array2d(JOBS,MACHINES,[5,4,1,2,3,0,5,1,4,0,2,3,2,0,5,1,4,3]);